151
300
210	11
209	1
208	7
207	8
206	5
205	12
204	5
203	9
202	4
201	11
200	7
199	10
198	6
197	5
196	9
195	6
194	10
193	7
192	14
191	5
190	3
189	2
188	8
187	8
186	6
185	7
184	10
183	3
182	6
181	4
180	4
179	7
178	8
177	6
176	8
175	9
174	7
173	4
172	7
171	3
170	7
169	9
168	6
167	5
166	6
165	6
164	4
163	8
162	8
161	4
160	9
159	7
158	8
157	4
156	4
155	7
154	7
153	4
152	10
151	4
150	5
149	9
148	6
147	3
146	4
145	5
144	5
143	4
142	11
141	6
140	6
139	6
138	14
137	6
136	5
135	6
134	9
133	7
132	8
131	9
130	6
129	12
128	5
127	10
126	7
125	3
124	6
123	4
122	10
121	9
120	7
119	13
118	9
117	7
116	6
115	8
114	4
113	5
112	11
111	6
110	10
109	9
108	3
107	2
106	6
105	5
104	9
103	4
102	7
101	5
100	4
99	7
98	6
97	7
96	5
95	3
94	6
93	4
92	8
91	12
90	4
89	3
88	7
87	8
86	7
85	10
84	11
83	6
82	3
81	4
80	3
79	5
78	3
77	9
76	9
75	5
74	6
73	5
72	8
71	6
70	10
69	7
68	6
67	6
66	6
65	5
64	10
63	6
62	5
61	8
60	6
